400
300 300
1 240 438
2 239 867
3 239 162
4 239 714
5 238 949
6 238 662
7 237 885
8 235 455
9 235 380
10 235 184
11 235 421
12 234 344
13 234 52
14 233 64
15 233 774
16 233 183
17 232 970
18 232 539
19 232 915
20 231 127
21 230 783
22 229 498
23 229 94
24 229 878
25 228 979
26 227 902
27 227 982
28 226 225
29 226 52
30 226 817
31 226 864
32 225 778
33 224 204
34 224 631
35 224 808
36 223 398
37 222 910
38 221 919
39 221 634
40 220 229
41 220 253
42 219 466
43 218 9
44 217 928
45 217 228
46 217 148
47 215 980
48 215 922
49 215 155
50 215 413
51 214 344
52 213 806
53 213 860
54 212 790
55 212 572
56 211 338
57 211 753
58 210 562
59 210 370
60 210 504
61 208 573
62 208 257
63 207 882
64 206 152
65 206 899
66 206 704
67 205 66
68 203 34
69 203 715
70 202 96
71 202 125
72 202 797
73 202 49
74 201 376
75 201 128
76 200 379
77 200 422
78 200 896
79 200 326
80 199 293
81 199 465
82 198 589
83 197 728
84 196 846
85 196 149
86 195 273
87 195 952
88 195 571
89 195 939
90 195 694
91 194 458
92 194 673
93 193 883
94 193 359
95 193 243
96 192 309
97 191 937
98 190 982
99 190 183
100 190 1000
101 190 943
102 189 454
103 189 969
104 189 373
105 189 418
106 188 245
107 188 883
108 187 115
109 187 746
110 186 822
111 186 404
112 186 439
113 185 592
114 185 789
115 185 997
116 184 277
117 184 304
118 184 186
119 183 707
120 183 679
121 182 711
122 181 211
123 180 859
124 180 602
125 180 218
126 179 956
127 177 856
128 177 751
129 176 524
130 176 59
131 175 81
132 175 131
133 175 806
134 175 742
135 175 789
136 174 56
137 174 975
138 174 665
139 173 761
140 173 334
141 172 934
142 172 196
143 172 681
144 171 456
145 171 609
146 171 174
147 170 924
148 170 691
149 169 206
150 169 527
151 169 967
152 168 727
153 168 5
154 168 500
155 168 928
156 168 416
157 167 849
158 167 816
159 167 739
160 167 466
161 166 480
162 166 293
163 166 766
164 166 382
165 165 997
166 164 831
167 164 342
168 164 20
169 164 967
170 163 28
171 163 830
172 162 718
173 162 354
174 162 67
175 161 178
176 161 306
177 160 350
178 158 118
179 157 136
180 157 683
181 157 360
182 156 778
183 155 949
184 155 293
185 155 654
186 154 16
187 153 394
188 152 875
189 151 486
190 151 825
191 151 142
192 150 956
193 150 365
194 149 988
195 149 577
196 148 897
197 147 326
198 147 583
199 147 161
200 147 233
201 146 856
202 146 31
203 146 513
204 146 757
205 145 361
206 145 74
207 144 668
208 143 719
209 143 973
210 142 481
211 141 698
212 141 340
213 140 161
214 140 426
215 139 710
216 138 940
217 138 129
218 138 448
219 137 300
220 137 960
221 137 842
222 137 131
223 137 891
224 136 344
225 136 0
226 135 904
227 135 372
228 135 958
229 135 547
230 134 93
231 134 241
232 134 268
233 134 506
234 134 676
235 134 659
236 133 782
237 133 19
238 133 500
239 133 384
240 133 562
241 133 938
242 132 214
243 132 950
244 132 354
245 131 450
246 131 618
247 131 415
248 130 473
249 130 45
250 130 640
251 129 689
252 129 631
253 129 644
254 128 217
255 128 529
256 128 49
257 127 488
258 127 862
259 125 21
260 125 709
261 124 898
262 123 558
263 123 119
264 122 476
265 122 767
266 121 180
267 121 11
268 121 647
269 120 669
270 120 369
271 119 424
272 119 259
273 118 23
274 118 46
275 117 240
276 117 353
277 117 693
278 116 566
279 115 181
280 115 416
281 115 97
282 115 872
283 114 815
284 114 464
285 113 474
286 112 827
287 112 653
288 112 700
289 112 477
290 111 919
291 111 884
292 109 467
293 108 374
294 108 819
295 107 917
296 107 142
297 106 138
298 106 746
299 106 696
300 105 775
301 105 812
302 105 763
303 104 451
304 104 223
305 103 485
306 102 236
307 102 617
308 102 491
309 101 894
310 100 491
311 99 9
312 98 672
313 97 513
314 96 386
315 96 508
316 95 668
317 94 672
318 94 69
319 94 162
320 93 422
321 93 141
322 93 450
323 92 311
324 92 79
325 92 728
326 91 557
327 91 783
328 90 823
329 89 573
330 89 332
331 88 494
332 88 876
333 87 450
334 86 570
335 85 872
336 85 569
337 85 827
338 84 588
339 83 791
340 83 66
341 82 787
342 82 664
343 82 701
344 81 609
345 81 640
346 80 12
347 80 361
348 80 629
349 80 89
350 80 664
351 80 662
352 79 948
353 79 111
354 78 968
355 78 508
356 78 476
357 78 388
358 77 810
359 77 695
360 77 193
361 76 485
362 76 110
363 75 582
364 75 242
365 75 961
366 73 767
367 73 155
368 72 690
369 72 664
370 72 502
371 71 147
372 71 529
373 71 345
374 70 536
375 69 390
376 69 7
377 68 901
378 68 512
379 68 27
380 67 284
381 67 254
382 66 224
383 66 927
384 66 471
385 66 807
386 65 639
387 65 361
388 65 454
389 64 354
390 64 749
391 63 577
392 63 379
393 62 13
394 62 751
395 62 237
396 61 212
397 61 480
398 60 967
399 60 902
400 60 688
